c colouring generated by benchmark framework
p edge 300 21375
v 1 47
v 2 50
v 3 39
v 4 29
v 5 40
v 6 32
v 7 14
v 8 14
v 9 11
v 10 32
v 11 26
v 12 6
v 13 37
v 14 0
v 15 8
v 16 31
v 17 26
v 18 11
v 19 7
v 20 21
v 21 6
v 22 15
v 23 11
v 24 32
v 25 34
v 26 48
v 27 36
v 28 8
v 29 28
v 30 37
v 31 25
v 32 2
v 33 22
v 34 14
v 35 13
v 36 22
v 37 30
v 38 9
v 39 39
v 40 2
v 41 3
v 42 9
v 43 34
v 44 3
v 45 3
v 46 20
v 47 32
v 48 27
v 49 34
v 50 48
v 51 26
v 52 18
v 53 29
v 54 6
v 55 29
v 56 49
v 57 15
v 58 1
v 59 10
v 60 51
v 61 26
v 62 24
v 63 19
v 64 13
v 65 29
v 66 12
v 67 35
v 68 23
v 69 20
v 70 17
v 71 4
v 72 30
v 73 39
v 74 42
v 75 41
v 76 21
v 77 7
v 78 24
v 79 7
v 80 38
v 81 4
v 82 33
v 83 2
v 84 18
v 85 24
v 86 27
v 87 48
v 88 28
v 89 38
v 90 47
v 91 10
v 92 6
v 93 46
v 94 4
v 95 5
v 96 35
v 97 23
v 98 7
v 99 16
v 100 26
v 101 9
v 102 2
v 103 17
v 104 42
v 105 1
v 106 1
v 107 35
v 108 17
v 109 32
v 110 30
v 111 5
v 112 35
v 113 8
v 114 36
v 115 9
v 116 14
v 117 3
v 118 46
v 119 6
v 120 9
v 121 44
v 122 44
v 123 16
v 124 40
v 125 28
v 126 11
v 127 39
v 128 38
v 129 23
v 130 36
v 131 37
v 132 28
v 133 49
v 134 36
v 135 20
v 136 16
v 137 12
v 138 31
v 139 1
v 140 24
v 141 22
v 142 38
v 143 31
v 144 41
v 145 15
v 146 1
v 147 45
v 148 23
v 149 13
v 150 24
v 151 11
v 152 8
v 153 11
v 154 10
v 155 10
v 156 6
v 157 20
v 158 2
v 159 27
v 160 16
v 161 50
v 162 18
v 163 6
v 164 27
v 165 0
v 166 43
v 167 5
v 168 29
v 169 39
v 170 22
v 171 5
v 172 43
v 173 13
v 174 38
v 175 33
v 176 12
v 177 11
v 178 31
v 179 20
v 180 33
v 181 22
v 182 23
v 183 35
v 184 32
v 185 18
v 186 8
v 187 1
v 188 19
v 189 34
v 190 28
v 191 30
v 192 19
v 193 16
v 194 17
v 195 45
v 196 9
v 197 2
v 198 10
v 199 18
v 200 19
v 201 15
v 202 34
v 203 0
v 204 21
v 205 5
v 206 4
v 207 0
v 208 11
v 209 37
v 210 35
v 211 52
v 212 25
v 213 27
v 214 31
v 215 18
v 216 5
v 217 43
v 218 40
v 219 25
v 220 22
v 221 39
v 222 21
v 223 6
v 224 9
v 225 41
v 226 15
v 227 31
v 228 17
v 229 1
v 230 16
v 231 2
v 232 15
v 233 8
v 234 13
v 235 9
v 236 4
v 237 4
v 238 18
v 239 40
v 240 45
v 241 52
v 242 51
v 243 52
v 244 15
v 245 21
v 246 19
v 247 10
v 248 8
v 249 4
v 250 3
v 251 33
v 252 17
v 253 7
v 254 8
v 255 0
v 256 9
v 257 17
v 258 12
v 259 37
v 260 36
v 261 35
v 262 5
v 263 25
v 264 5
v 265 24
v 266 10
v 267 30
v 268 43
v 269 13
v 270 7
v 271 0
v 272 19
v 273 13
v 274 14
v 275 12
v 276 18
v 277 0
v 278 30
v 279 41
v 280 22
v 281 21
v 282 18
v 283 42
v 284 31
v 285 7
v 286 31
v 287 12
v 288 14
v 289 20
v 290 14
v 291 16
v 292 25
v 293 51
v 294 33
v 295 10
v 296 0
v 297 3
v 298 17
v 299 34
v 300 14
